(set-info :Origin "This instance was generated by: BanditFuzz-- an RL fuzzer for SMT solvers" )
(set-info :Author "Joe Scott, Fed Mora, Vijay Ganesh" )
(set-info :Contact "Joe Scott, joseph.scott@uwaterloo.ca")
(set-logic QF_BV)
(declare-const bool_0 Bool)
(declare-const bool_1 Bool)
(declare-const bool_2 Bool)
(declare-const bool_3 Bool)
(declare-const bool_4 Bool)
(declare-const bv_0 (_ BitVec 32))
(declare-const bv_1 (_ BitVec 32))
(declare-const bv_2 (_ BitVec 32))
(declare-const bv_3 (_ BitVec 32))
(declare-const bv_4 (_ BitVec 32))
(assert (bvsgt (bvor (bvor #xe341e10f  bv_3) (bvsdiv #x775844ca  #x305b0334 )) (bvsrem (bvxor #x2f639724  #x36a5c050 ) (bvsub bv_2 bv_3))))
(assert (bvsge (bvshl (bvashr #xc92a3598  bv_2) (bvurem #x36708d0b  bv_0)) (bvadd (bvnor #xbb2b3767  #x629cbfdb ) (bvsub bv_0 bv_4))))
(assert (or (bvuge (bvsrem bv_3 bv_4) (bvsdiv bv_3 #x52bda660 )) (bvsgt (bvsdiv bv_3 bv_1) (bvxor bv_2 #x5aad5f8f ))))
(assert (bvsle (bvsrem (bvshl #xd9b78e81  #xc2b0b218 ) (bvudiv #x534eba41  bv_4)) (bvsub (bvnand bv_4 bv_0) (bvashr bv_4 #xd703fb0f ))))
(assert (xor (=> (=> bool_2 bool_4) (bvsgt #x3e0ecca2  bv_2)) (bvult (bvand #x479995cd  bv_3) (bvsub #xde5753d8  bv_4))))
(check-sat)
(exit)
